\ENCODING=ISO-8859-1
\Problem name: SUFL_5_5_0

Minimize
 obj: 30 x1#0 + 30 x2#1 + 30 x3#2 + 30 x4#3 + 30 x5#4 + _eta#5
Subject To
 c_g_1:    x1#0 + x2#1 + x3#2 + x4#3 + x5#4 >= 1
 cut_4992: 29 x2#1 + 62.7498497897056 x3#2 + 22 x4#3 + 46.4938914480272 x5#4
           + 1.00140196274785 _eta#5 >= 0
 cut_4993: 29 x2#1 + 62.7496996395675 x3#2 + 22 x4#3 + 46.4937925510613 x5#4
           + 1.00120144173008 _eta#5 >= 0
 cut_4994: 29 x2#1 + 62.7495495495495 x3#2 + 22 x4#3 + 46.4936936936937 x5#4
           + 1.001001001001 _eta#5 >= 0
 cut_4995: 29 x2#1 + 62.75 x3#2 + 22 x4#3 + 46.4937950360288 x5#4
           + 1.00080064051241 _eta#5 >= 0
 cut_4996: 29 x2#1 + 62.749849909946 x3#2 + 22 x4#3 + 46.4936962177306 x5#4
           + 1.00060036021613 _eta#5 >= 0
 cut_4997: 29 x2#1 + 62.749699879952 x3#2 + 22 x4#3 + 46.4935974389756 x5#4
           + 1.00040016006403 _eta#5 >= 0
 cut_4998: 29 x2#1 + 62.749549909982 x3#2 + 22 x4#3 + 46.4936987397479 x5#4
           + 1.000200040008 _eta#5 >= 0
 cut_4999: 29 x2#1 + 62.7494 x3#2 + 22 x4#3 + 46.4936 x5#4 + _eta#5 >= 0
Bounds
 0 <= x1#0 <= 1
 0 <= x2#1 <= 1
 0 <= x3#2 <= 1
 0 <= x4#3 <= 1
 0 <= x5#4 <= 1
Binaries
 x1#0  x2#1  x3#2  x4#3  x5#4 
End
